data/solutions/recovery/wellformed/intermediate/binding/wellformed_intermediate_instance84/25.sol
Elapsed time: 0.4
Upper bound: 157428.0
Planning weighted value: 8323470021.0
C[0]=157428.0
C[1]=157340.0
C[2]=157328.0
C[3]=157319.0
C[4]=157227.0
C[5]=157184.0
C[6]=157175.0
C[7]=157133.0
C[8]=156898.0
C[9]=156827.0
C[10]=156451.0
C[11]=156229.0
C[12]=156159.0
C[13]=154220.0
C[14]=0.0
C[15]=0.0
y[0]=0
y[1]=9
y[2]=5
y[3]=10
y[4]=1
y[5]=5
y[6]=12
y[7]=0
y[8]=6
y[9]=8
y[10]=6
y[11]=10
y[12]=4
y[13]=7
y[14]=3
y[15]=1
y[16]=0
y[17]=12
y[18]=9
y[19]=6
y[20]=11
y[21]=1
y[22]=9
y[23]=1
y[24]=1
y[25]=1
y[26]=2
y[27]=7
y[28]=0
y[29]=6
y[30]=5
y[31]=13
y[32]=5
y[33]=0
y[34]=1
y[35]=4
y[36]=6
y[37]=12
y[38]=4
y[39]=5
y[40]=0
y[41]=1
y[42]=1
y[43]=1
y[44]=8
y[45]=0
y[46]=8
y[47]=4
y[48]=2
y[49]=4
y[50]=13
y[51]=1
y[52]=4
y[53]=3
y[54]=11
y[55]=1
y[56]=1
y[57]=1
y[58]=0
y[59]=0
y[60]=1
y[61]=11
y[62]=11
y[63]=1
y[64]=1
y[65]=0
y[66]=10
y[67]=1
y[68]=13
y[69]=1
y[70]=1
y[71]=1
y[72]=5
y[73]=7
y[74]=3
y[75]=1
y[76]=1
y[77]=1
y[78]=3
y[79]=0
y[80]=12
y[81]=0
y[82]=11
y[83]=1
y[84]=2
y[85]=10
y[86]=3
y[87]=4
y[88]=9
y[89]=1
y[90]=1
y[91]=8
y[92]=0
y[93]=1
y[94]=11
y[95]=13
y[96]=1
y[97]=1
y[98]=1
y[99]=6
y[100]=9
y[101]=1
y[102]=12
y[103]=1
y[104]=5
y[105]=0
y[106]=4
y[107]=1
y[108]=1
y[109]=10
y[110]=1
y[111]=13
y[112]=0
y[113]=1
y[114]=1
y[115]=11
y[116]=3
y[117]=0
y[118]=10
y[119]=9
y[120]=3
y[121]=1
y[122]=11
y[123]=1
y[124]=11
y[125]=8
y[126]=13
y[127]=11
y[128]=7
y[129]=10
y[130]=1
y[131]=3
y[132]=4
y[133]=1
y[134]=3
y[135]=2
y[136]=12
y[137]=1
y[138]=10
y[139]=9
y[140]=11
y[141]=7
y[142]=8
y[143]=1
y[144]=2
y[145]=6
y[146]=7
y[147]=2
y[148]=6
y[149]=0
y[150]=0
y[151]=11
y[152]=0
y[153]=1
y[154]=7
y[155]=12
y[156]=1
y[157]=0
y[158]=0
y[159]=1
y[160]=4
y[161]=5
y[162]=13
y[163]=0
y[164]=2
y[165]=11
y[166]=1
y[167]=12
y[168]=5
y[169]=0
y[170]=1
y[171]=1
y[172]=5
y[173]=8
y[174]=6
y[175]=5
y[176]=3
y[177]=1
y[178]=8
y[179]=7
y[180]=7
y[181]=0
y[182]=1
y[183]=13
y[184]=2
y[185]=9
y[186]=1
y[187]=12
y[188]=1
y[189]=4
y[190]=10
y[191]=0
y[192]=2
y[193]=8
y[194]=6
y[195]=4
y[196]=1
y[197]=9
y[198]=1
y[199]=1
y[200]=5
y[201]=11
y[202]=8
y[203]=13
y[204]=4
y[205]=3
y[206]=7
y[207]=12
y[208]=10
y[209]=8
y[210]=2
y[211]=9
y[212]=13
y[213]=9
