data/solutions/recovery/wellformed/intermediate/binding/wellformed_intermediate_instance84/25.log

Log started (V12.6.3.0) Fri Apr 20 20:52:56 2018

New value for default parallel thread count: 1

Problem '/tmp/tmpjj3lJ5.pyomo.lp' read.
Read time = 0.08 sec. (7.97 ticks)

Problem name         : /tmp/tmpjj3lJ5.pyomo.lp
Objective sense      : Minimize
Variables            :    3442  [Nneg: 1,  Binary: 3424,  General Integer: 17]
Objective nonzeros   :       1
Linear constraints   :     463  [Less: 230,  Equal: 233]
  Nonzeros           :  588207
  RHS nonzeros       :     215

Variables            : Min LB: 0.000000         Max UB: 1.000000       
Objective nonzeros   : Min   : 1.000000         Max   : 1.000000       
Linear constraints   :
  Nonzeros           : Min   : 1.000000         Max   : 19973.00       
  RHS nonzeros       : Min   : 1.000000         Max   : 1.000000       
Tried aggregator 2 times.
MIP Presolve eliminated 402 rows and 2965 columns.
Aggregator did 14 substitutions.
Reduced MIP has 47 rows, 463 columns, and 938 nonzeros.
Reduced MIP has 462 binaries, 1 generals, 0 SOSs, and 0 indicators.
Presolve time = 0.02 sec. (34.40 ticks)
Found incumbent of value 572539.000000 after 0.04 sec. (48.21 ticks)
Probing time = 0.00 sec. (0.55 ticks)
Tried aggregator 1 time.
Reduced MIP has 47 rows, 463 columns, and 938 nonzeros.
Reduced MIP has 462 binaries, 1 generals, 0 SOSs, and 0 indicators.
Presolve time = 0.00 sec. (0.78 ticks)
Probing time = 0.00 sec. (0.55 ticks)
Clique table members: 33.
MIP emphasis: balance optimality and feasibility.
MIP search method: dynamic search.
Parallel mode: none, using 1 thread.
Root relaxation solution time = 0.00 sec. (0.86 ticks)

        Nodes                                         Cuts/
   Node  Left     Objective  IInf  Best Integer    Best Bound    ItCnt     Gap

*     0+    0                       572539.0000   157428.0000            72.50%
      0     0   157428.0000    23   572539.0000   157428.0000       85   72.50%
*     0+    0                       169447.0000   157428.0000             7.09%
      0     0   157428.0000    22   169447.0000      Cuts: 15      130    7.09%
*     0+    0                       163712.0000   157428.0000             3.84%
      0     0   157428.0000    14   163712.0000      Cuts: 25      162    3.84%
*     0+    0                       159700.0000   157428.0000             1.42%
      0     0   157428.0000    16   159700.0000      Cuts: 10      194    1.42%
      0     0   157428.0000    14   159700.0000       Cuts: 6      207    1.42%
*     0+    0                       158502.0000   157428.0000             0.68%
*     0+    0                       158164.0000   157428.0000             0.47%
      0     2   157428.0000     9   158164.0000   157428.0000      207    0.47%
Elapsed time = 0.07 sec. (80.96 ticks, tree = 0.01 MB, solutions = 6)
*   480+  440                       157885.0000   157428.0000             0.29%
*   481+  374                       157470.0000   157428.0000             0.03%
*   582+    0                       157428.0000   157428.0000             0.00%

Clique cuts applied:  1
Cover cuts applied:  4
Mixed integer rounding cuts applied:  1

Root node processing (before b&c):
  Real time             =    0.08 sec. (81.17 ticks)
Sequential b&c:
  Real time             =    0.20 sec. (213.07 ticks)
                          ------------
Total (root+branch&cut) =    0.28 sec. (294.24 ticks)

Solution pool: 9 solutions saved.

MIP - Integer optimal solution:  Objective =  1.5742800000e+05
Solution time =    0.28 sec.  Iterations = 3025  Nodes = 582
Deterministic time = 294.25 ticks  (1063.63 ticks/sec)


Incumbent solution written to file '/tmp/tmpOmRhDz.cplex.sol'.
